NAME: mp9
TYPE: ATSP
DIMENSION: 9
BEST_KNOWN: 
EDGE_WEIGHT_SECTION 
-1 67 71 72 47 18 77 4 96 
22 -1 71 75 73 84 69 17 98 
44 7 -1 15 24 53 21 32 26 
41 68 9 -1 46 72 27 81 31 
7 66 81 24 -1 28 38 16 87 
72 45 97 35 28 -1 87 16 32 
68 41 6 61 94 5 -1 77 34 
25 14 19 30 36 45 6 -1 62 
73 33 48 56 34 23 80 79 -1 
